12 40 6 10
14 12 6 18 18 1 9 1 11 13 16 15 8 3 15 3 15 1 18 7 18 5 15 9 5 16 8 16 17 17 6 7 17 15 2 10 15 11 1 17 
4.95 3.03 3 3.75 7.56 4.66 2.03 1.27 7.39 1.94 6.59 3.2 5.39 6.89 6.22 7.55 5.37 0.39 1.98 7.18 0.6 7.16 3.66 2.54 5.91 2.96 3.83 1.86 0.54 1.22 2.86 0.54 5.75 5.81 2.73 4.38 7.23 3.04 0.6 0.7 
0.75 0.02 1.73 4.66 4.74 1.06 2.31 4.85 4.3 6.89 1.23 6.88 3.62 1.35 7.13 6.12 4.25 5.59 6.52 7.03 2.13 4.55 0.58 3.9 5.95 7.96 7.06 7.35 4.32 2.04 6.13 5.18 2.25 0.58 3.65 5.15 1.53 0.29 0.57 2.81 
0.38 5.16 7.83 5.14 1.17 1.08 2.3 7.47 7.68 4.73 7.92 0.94 6.97 7.52 1.43 4.32 6.27 6.17 2.13 6.04 3.06 7.55 3.63 7.95 2.69 4.97 5.45 6.02 4.76 7.68 5.31 0.45 0.82 0.43 6.85 6.92 4.05 2.11 7.2 3.92 
7.4 4.62 2.06 1.32 2.4 2.01 6.47 7.52 3.82 3.7 3.07 3.43 2.78 0.76 0.64 2.86 0.3 4.83 1.7 4.82 7.48 6.57 2.99 1.76 0.45 1.41 5.88 7.13 2.12 6.92 0.12 3.48 4.13 5.99 6.5 0.33 1.52 5.51 4.23 2.11 
7.89 2.53 4.2 6.65 4.07 2.98 5.12 0.12 0.67 3.53 3.12 6.51 0.61 7.46 5.84 7.4 3.45 5.99 0.18 7.8 4.33 3.51 5.05 2.52 7.47 4.15 2.52 4.41 5.34 4.02 0.81 5.3 5.46 7.48 1.36 0.22 3.89 5.22 3.83 0.71 
3.54 4.35 3.87 2.54 2.86 4.49 1.16 3.89 4.03 3.15 4.88 1.06 5.31 0.95 2.59 3.17 4.23 3.24 6.67 7.21 3.46 0.55 3.31 1.92 2.09 6.65 2.51 7.29 1.91 1.37 7.1 3 3.49 0.51 3.41 4.57 1.87 4.39 1.98 1.8 
4 4 4 4 4 4 4 4 4 4 4 4 4 4 4 4 4 4 4 4 4 4 4 4 4 4 4 4 4 4 4 4 4 4 4 4 4 4 4 4 
1.96 5.03 6.38 6.96 2.85 1.14 3.32 0.3 2.98 4.27 2.77 3.86 6.82 5.57 6.78 5.02 5.39 3.18 0.35 1.72 6.55 6.07 2.81 3.69 1.98 0.54 6.81 7.68 1.15 7.84 7.41 4.4 4.77 0.49 5.29 2.32 1.96 5.46 0.82 0.4 
7.68 3.33 4.48 1.09 4.68 2.84 1.48 7.11 4.76 3.27 2.15 3.67 0.93 4.74 1.44 5.09 3.21 7.79 2.59 6.93 2.34 7.3 3.33 3.83 0.68 4.98 6.25 4.51 7.57 7.63 2.12 6 5.1 2.27 2.5 3.76 6.82 2.05 2.33 6.04 
5.96 5.95 5.11 5.6 7.49 0.73 2.51 6.98 0.98 3.52 7.24 1.3 1.77 5.12 5.54 5.52 3.41 3.59 0.28 7.06 4.38 3.09 6.22 1.85 1.64 4.04 2.11 2.14 4.99 3.39 4.8 0.3 2.48 1.99 2.05 6.34 6.05 2.11 2.28 6.94 
0.94 2.32 4.62 1.27 0.46 7.96 6.12 5.06 0.33 6.36 5.01 0.94 4.46 0.57 5.85 4.3 1.45 5.41 0.29 3.26 2.96 5.57 3.79 5.5 0.89 2.95 4.61 6.31 2.65 0.21 0.35 0.4 2.12 6.9 7.21 5.99 5.25 5.21 7.84 0.91 
1.72 7.84 5.93 6.38 3.67 3.57 6.97 4.59 0.95 3.16 0.15 1.21 6.24 0.26 7.49 6.3 1.83 6.2 1.85 5.85 3.97 4.96 5.04 2.62 0.8 7.03 2.13 7.65 1.84 4.96 3.48 2.71 3.37 5.55 6.2 7.04 5.52 0.42 3.82 7.69 
1 1 1 1 1 1 1 1 1 1 1 1 1 1 1 1 1 1 1 1 1 1 1 1 1 1 1 1 1 1 1 1 1 1 1 1 1 1 1 1 
1 1 1 1 1 1 1 1 1 1 1 1 1 1 1 1 1 1 1 1 1 1 1 1 1 1 1 1 1 1 1 1 1 1 1 1 1 1 1 1 
1 1 1 1 1 1 1 1 1 1 1 1 1 1 1 1 1 1 1 1 1 1 1 1 1 1 1 1 1 1 1 1 1 1 1 1 1 1 1 1 
1 1 1 1 1 1 1 1 1 1 1 1 1 1 1 1 1 1 1 1 1 1 1 1 1 1 1 1 1 1 1 1 1 1 1 1 1 1 1 1 
1 1 1 1 1 1 1 1 1 1 1 1 1 1 1 1 1 1 1 1 1 1 1 1 1 1 1 1 1 1 1 1 1 1 1 1 1 1 1 1 
1 1 1 1 1 1 1 1 1 1 1 1 1 1 1 1 1 1 1 1 1 1 1 1 1 1 1 1 1 1 1 1 1 1 1 1 1 1 1 1 
1 1 1 1 1 1 1 1 1 1 1 1 1 1 1 1 1 1 1 1 1 1 1 1 1 1 1 1 1 1 1 1 1 1 1 1 1 1 1 1 
1 1 1 1 1 1 1 1 1 1 1 1 1 1 1 1 1 1 1 1 1 1 1 1 1 1 1 1 1 1 1 1 1 1 1 1 1 1 1 1 
1 1 1 1 1 1 1 1 1 1 1 1 1 1 1 1 1 1 1 1 1 1 1 1 1 1 1 1 1 1 1 1 1 1 1 1 1 1 1 1 
1 1 1 1 1 1 1 1 1 1 1 1 1 1 1 1 1 1 1 1 1 1 1 1 1 1 1 1 1 1 1 1 1 1 1 1 1 1 1 1 
1 1 1 1 1 1 1 1 1 1 1 1 1 1 1 1 1 1 1 1 1 1 1 1 1 1 1 1 1 1 1 1 1 1 1 1 1 1 1 1 
1 1 1 1 1 1 1 1 1 1 1 1 1 1 1 1 1 1 1 1 1 1 1 1 1 1 1 1 1 1 1 1 1 1 1 1 1 1 1 1 
0.01 0.01 0.01 0.01 0.01 0.01 0.01 0.01 0.01 0.01 0.01 0.01 0.01 0.01 0.01 0.01 0.01 0.01 0.01 0.01 0.01 0.01 0.01 0.01 0.01 0.01 0.01 0.01 0.01 0.01 0.01 0.01 0.01 0.01 0.01 0.01 0.01 0.01 0.01 0.01 
0.02 0.02 0.02 0.02 0.02 0.02 0.02 0.02 0.02 0.02 0.02 0.02 0.02 0.02 0.02 0.02 0.02 0.02 0.02 0.02 0.02 0.02 0.02 0.02 0.02 0.02 0.02 0.02 0.02 0.02 0.02 0.02 0.02 0.02 0.02 0.02 0.02 0.02 0.02 0.02 
0.03 0.03 0.03 0.03 0.03 0.03 0.03 0.03 0.03 0.03 0.03 0.03 0.03 0.03 0.03 0.03 0.03 0.03 0.03 0.03 0.03 0.03 0.03 0.03 0.03 0.03 0.03 0.03 0.03 0.03 0.03 0.03 0.03 0.03 0.03 0.03 0.03 0.03 0.03 0.03 
0.04 0.04 0.04 0.04 0.04 0.04 0.04 0.04 0.04 0.04 0.04 0.04 0.04 0.04 0.04 0.04 0.04 0.04 0.04 0.04 0.04 0.04 0.04 0.04 0.04 0.04 0.04 0.04 0.04 0.04 0.04 0.04 0.04 0.04 0.04 0.04 0.04 0.04 0.04 0.04 
0.05 0.05 0.05 0.05 0.05 0.05 0.05 0.05 0.05 0.05 0.05 0.05 0.05 0.05 0.05 0.05 0.05 0.05 0.05 0.05 0.05 0.05 0.05 0.05 0.05 0.05 0.05 0.05 0.05 0.05 0.05 0.05 0.05 0.05 0.05 0.05 0.05 0.05 0.05 0.05 
0.06 0.06 0.06 0.06 0.06 0.06 0.06 0.06 0.06 0.06 0.06 0.06 0.06 0.06 0.06 0.06 0.06 0.06 0.06 0.06 0.06 0.06 0.06 0.06 0.06 0.06 0.06 0.06 0.06 0.06 0.06 0.06 0.06 0.06 0.06 0.06 0.06 0.06 0.06 0.06 
0.07 0.07 0.07 0.07 0.07 0.07 0.07 0.07 0.07 0.07 0.07 0.07 0.07 0.07 0.07 0.07 0.07 0.07 0.07 0.07 0.07 0.07 0.07 0.07 0.07 0.07 0.07 0.07 0.07 0.07 0.07 0.07 0.07 0.07 0.07 0.07 0.07 0.07 0.07 0.07 
0.2 0.2 0.2 0.2 0.2 0.2 0.2 0.2 0.2 0.2 0.2 0.2 0.2 0.2 0.2 0.2 0.2 0.2 0.2 0.2 0.2 0.2 0.2 0.2 0.2 0.2 0.2 0.2 0.2 0.2 0.2 0.2 0.2 0.2 0.2 0.2 0.2 0.2 0.2 0.2 
0.4 0.4 0.4 0.4 0.4 0.4 0.4 0.4 0.4 0.4 0.4 0.4 0.4 0.4 0.4 0.4 0.4 0.4 0.4 0.4 0.4 0.4 0.4 0.4 0.4 0.4 0.4 0.4 0.4 0.4 0.4 0.4 0.4 0.4 0.4 0.4 0.4 0.4 0.4 0.4 
0.6 0.6 0.6 0.6 0.6 0.6 0.6 0.6 0.6 0.6 0.6 0.6 0.6 0.6 0.6 0.6 0.6 0.6 0.6 0.6 0.6 0.6 0.6 0.6 0.6 0.6 0.6 0.6 0.6 0.6 0.6 0.6 0.6 0.6 0.6 0.6 0.6 0.6 0.6 0.6 
0.8 0.8 0.8 0.8 0.8 0.8 0.8 0.8 0.8 0.8 0.8 0.8 0.8 0.8 0.8 0.8 0.8 0.8 0.8 0.8 0.8 0.8 0.8 0.8 0.8 0.8 0.8 0.8 0.8 0.8 0.8 0.8 0.8 0.8 0.8 0.8 0.8 0.8 0.8 0.8 
1 1 1 1 1 1 1 1 1 1 1 1 1 1 1 1 1 1 1 1 1 1 1 1 1 1 1 1 1 1 1 1 1 1 1 1 1 1 1 1 
